50
6124

407 139
826 911
795 179
429 990
217 984
78 663
153 306
432 483
259 763
693 238
22 805
236 481
152 707
443 952
786 385
38 533
618 131
263 575
642 542
782 915
948 56
279 150
360 833
652 994
187 605
745 234
368 91
988 830
125 479
310 524
863 72
229 636
37 537
682 725
72 573
577 529
708 543
612 437
145 828
387 818
965 772
416 603
360 545
525 291
625 947
741 100
52 201
203 454
564 125
460 60
